10
0 5 10 15 20 25 30 35 40 45
5 0 46 13 75 32 16 15 25 30
10 15 0 25 30 55 60 75 5 35
15 5 10 0 25 45 35 10 15 30
20 15 5 35 0 10 25 40 30 45
25 10 5 30 35 0 45 20 15 40
30 35 40 15 10 5 0 20 25 45
35 5 15 25 35 15 40 0 15 10
40 15 10 25 35 45 50 5 0 30
45 10 15 5 25 35 65 40 30 0

fake data
